============================[ Problem Statistics ]=============================|                                                                             ||  Number of variables:          4242                                         ||  Number of clauses:           10187                                         ||  Parse time:                   0.58 s                                       ||                                                                             |============================[ Search Statistics ]==============================| Conflicts |          ORIGINAL         |          LEARNT          | Progress ||           |    Vars  Clauses Literals |    Limit  Clauses Lit/Cl |          |===============================================================================|       100 |    1591     6392   917073 |     2343      100     53 | 62.501 % ||       250 |    1591     6392   917073 |     2578      250     75 | 62.495 % |===============================================================================restarts              : 3conflicts             : 318            (362 /sec)decisions             : 584            (0.00 % random) (665 /sec)propagations          : 11889          (13541 /sec)conflict literals     : 25382          (94.69 % deleted)CPU time              : 0.878 sSATISFIABLE